# 56761
param k := 6;
param n := 60;
param s := 1;
set E :=  (0,49) (0,51) (1,23) (2,6) (2,30) (3,8) (3,36) (3,45) (4,53) (5,40) (6,12) (7,39) (7,42) (7,55) (8,22) (8,30) (9,45) (9,50) (9,57) (10,40) (11,17) (13,40) (14,35) (14,40) (14,47) (14,56) (15,20) (15,27) (16,20) (16,24) (16,59) (17,27) (17,35) (17,37) (18,40) (19,26) (19,51) (19,58) (20,50) (20,58) (21,41) (21,50) (22,25) (22,29) (23,52) (28,31) (28,39) (28,58) (29,39) (31,37) (32,44) (33,38) (34,49) (38,39) (38,53) (43,47) (44,52) (46,56) (48,56) (49,56) (50,52) (52,54) (53,58);